Medium-instances_NetworkFacilityLocation/2023-03-27_20hr-25min-09sec/Nodes40_Arcs65_LocNodes30/Formulation-2Instance-4.lp
\ Model LocPrice
\ LP format - for model browsing. Use MPS format to capture full model detail.
Maximize
  - 163 x[2] - 183 x[3] - 158 x[4] - 196 x[5] - 179 x[8] - 177 x[9]
   - 172 x[10] - 158 x[11] - 186 x[12] - 187 x[13] - 187 x[14] - 193 x[15]
   - 150 x[17] - 181 x[19] - 160 x[20] - 175 x[21] - 193 x[23] - 176 x[24]
   - 183 x[25] - 199 x[26] - 189 x[28] - 173 x[30] - 187 x[32] - 155 x[33]
   - 179 x[34] - 157 x[35] - 166 x[36] - 178 x[37] - 164 x[38] - 192 x[40]
   - 4.235642564035867 Q[2] - 4.837100558910142 Q[3]
   - 4.251299215535949 Q[4] - 4.133224119132227 Q[5]
   - 3.033663808050257 Q[8] - 4.320469891295889 Q[9]
   - 4.757853264202686 Q[10] - 4.280931103141499 Q[11]
   - 4.039286663705811 Q[12] - 3.676499487170462 Q[13]
   - 4.987436088911866 Q[14] - 3.587347920961229 Q[15]
   - 4.562368007822657 Q[17] - 3.988805497223905 Q[19]
   - 4.134108394239371 Q[20] - 3.050460780212102 Q[21]
   - 4.608910151772595 Q[23] - 3.896803177552599 Q[24]
   - 4.875850717804353 Q[25] - 4.913229419949531 Q[26]
   - 4.804452851323907 Q[28] - 4.370756476645192 Q[30]
   - 3.354189070577863 Q[32] - 3.398255782962086 Q[33]
   - 3.754238837000127 Q[34] - 3.350267894033739 Q[35]
   - 4.895806569517586 Q[36] - 3.884527258629602 Q[37]
   - 4.413106162904542 Q[38] - 3.323671075343326 Q[40]
   - 1.603196885304082 f[2,1] - 1.591129998398542 f[3,2]
   - 1.437210680212749 f[4,3] - 1.576848586114168 f[5,3]
   - 2.362911118986152 f[6,5] - 2.37204139807092 f[7,2]
   - 2.630026219016707 f[8,3] - 1.111291557635917 f[9,2]
   - 2.020074701487551 f[10,1] - 1.851788488866254 f[11,5]
   - 0.6523496076035747 f[12,7] - 1.506365929685346 f[13,12]
   - 1.287185876615631 f[14,2] - 2.921324497658728 f[15,14]
   - 1.771287134239787 f[16,11] - 2.441979734682798 f[17,8]
   - 1.376576034810869 f[18,6] - 2.51002519014831 f[19,13]
   - 2.725174463928074 f[20,9] - 0.4616757557903093 f[21,6]
   - 1.816241716095186 f[22,21] - 1.896832949463954 f[23,5]
   - 1.597101435858204 f[24,18] - 2.559877438784188 f[25,3]
   - 1.271746046334004 f[26,22] - 2.606944127516136 f[27,4]
   - 2.41910481343111 f[28,15] - 2.023630566397242 f[29,15]
   - 0.5947313493343912 f[30,28] - 0.9909522426718933 f[31,27]
   - 1.066988939518543 f[32,1] - 2.852678606067255 f[33,30]
   - 2.63371548818757 f[34,30] - 0.0252893952539299 f[35,12]
   - 2.841611230885407 f[36,14] - 1.874479178680586 f[37,16]
   - 2.789260255835622 f[38,9] - 1.043732847279116 f[39,9]
   - 0.5838716355874716 f[40,21] - 1.759521018634993 f[38,3]
   - 1.480765080726982 f[39,23] - 0.6312501770103851 f[27,6]
   - 0.3213796496106526 f[7,17] - 0.9566620788795894 f[28,37]
   - 0.5858985441429891 f[8,18] - 2.995109220021705 f[15,30]
   - 2.888119825429757 f[23,37] - 0.7959075997096635 f[22,9]
   - 0.0412167956116702 f[7,25] - 1.399002262691327 f[25,12]
   - 0.4994819428973398 f[12,24] - 0.0998663301552947 f[22,13]
   - 1.855915088714919 f[11,3] - 0.2615205937511379 f[38,25]
   - 0.3586710489300894 f[34,33] - 0.7665119022711122 f[32,4]
   - 0.6457296106833048 f[2,12] - 1.834752495296459 f[25,16]
   - 1.915614163472943 f[35,4] - 2.861964161742205 f[32,37]
   - 1.212907208893493 f[29,39] - 1.170580745860745 f[36,38]
   - 0.1606564319797981 f[21,37] - 0.7512141295817895 f[5,23]
   - 1.279963147406615 f[29,11] + 1424 D[2] + 1385 D[5] + 1424 D[9]
   + 1353 D[11] + 1425 D[15] + 1497 D[16] + 1447 D[17] + 1331 D[18]
   + 1438 D[19] + 1303 D[20] + 1423 D[23] + 1422 D[24] + 1350 D[27]
   + 1383 D[29] + 1380 D[32] + 1379 D[33] + 1331 D[34] + 1364 D[36]
   + 1356 D[38] + 1374 D[40] - 1.516939490070479 S[2]
   - 1.887674808095442 S[5] - 1.488610321994358 S[7]
   - 1.535676214858714 S[8] - 1.061838147150251 S[9]
   - 1.364646028192988 S[10] - 1.622936562002931 S[12]
   - 1.464448432642501 S[13] - 1.557971620058006 S[14]
   - 1.797446817574148 S[17] - 1.82202739175216 S[19]
   - 1.121730714065535 S[21] - 1.304048896812072 S[22]
   - 1.133683997809814 S[26] - 1.704202041604962 S[28]
   - 1.592293164981553 S[29] - 1.428901396439984 S[30]
   - 1.862339565294851 S[35] - 1.975289125362092 S[37]
   - 1.484142016708258 S[39] + [ - 2.294221669306763 f[2,1] ^2
   - 0.3789578784215757 f[3,2] ^2 - 1.014650298404725 f[4,3] ^2
   - 3.261776435918378 f[5,3] ^2 - 1.725152592665733 f[6,5] ^2
   - 3.241224855988973 f[7,2] ^2 - 2.07392531303987 f[8,3] ^2
   - 1.994299863374672 f[9,2] ^2 - 1.818258589476129 f[10,1] ^2
   - 1.495651533015731 f[11,5] ^2 - 2.15848457475345 f[12,7] ^2
   - 1.14736753824848 f[13,12] ^2 - 3.361545793201751 f[14,2] ^2
   - 0.9597588879525158 f[15,14] ^2 - 2.91588549375063 f[16,11] ^2
   - 1.49343481620876 f[17,8] ^2 - 2.177496793393768 f[18,6] ^2
   - 0.5921189535161142 f[19,13] ^2 - 3.708560658007658 f[20,9] ^2
   - 1.332665305391758 f[21,6] ^2 - 3.84456030251689 f[22,21] ^2
   - 0.6587815839799669 f[23,5] ^2 - 1.296422942677315 f[24,18] ^2
   - 2.509171128291887 f[25,3] ^2 - 2.23232344723416 f[26,22] ^2
   - 3.425799017682394 f[27,4] ^2 - 0.2723973539007902 f[28,15] ^2
   - 1.761939692415282 f[29,15] ^2 - 2.18234484943089 f[30,28] ^2
   - 2.11790287736107 f[31,27] ^2 - 2.233810884527294 f[32,1] ^2
   - 1.588529237580522 f[33,30] ^2 - 3.948258724031303 f[34,30] ^2
   - 0.7682250983247667 f[35,12] ^2 - 1.261401200396669 f[36,14] ^2
   - 1.804601139277218 f[37,16] ^2 - 3.843839226487902 f[38,9] ^2
   - 0.999212097467709 f[39,9] ^2 - 0.9139622975021573 f[40,21] ^2
   - 1.073724679982945 f[38,3] ^2 - 3.187311327050133 f[39,23] ^2
   - 2.145089118360273 f[27,6] ^2 - 0.7829220088425561 f[7,17] ^2
   - 0.4976689190230497 f[28,37] ^2 - 1.57146497394631 f[8,18] ^2
   - 2.792152005286486 f[15,30] ^2 - 2.454891813955697 f[23,37] ^2
   - 1.712415628101267 f[22,9] ^2 - 2.546688557534658 f[7,25] ^2
   - 3.334119635771056 f[25,12] ^2 - 1.756081723773841 f[12,24] ^2
   - 2.257287747764507 f[22,13] ^2 - 1.573149292370096 f[11,3] ^2
   - 1.111026473155172 f[38,25] ^2 - 2.858038579882888 f[34,33] ^2
   - 0.2125833695227533 f[32,4] ^2 - 2.322888199402719 f[2,12] ^2
   - 2.284589865087682 f[25,16] ^2 - 2.266214407745217 f[35,4] ^2
   - 3.012705416525642 f[32,37] ^2 - 1.867993044501262 f[29,39] ^2
   - 2.274005890615428 f[36,38] ^2 - 1.884517835640958 f[21,37] ^2
   - 3.986515621946229 f[5,23] ^2 - 3.621286352265126 f[29,11] ^2
   - 6.050757579851203 D[2] ^2 - 7.254129194946991 D[5] ^2
   - 6.85036622956312 D[9] ^2 - 7.878586164073984 D[11] ^2
   - 6.777061648509863 D[15] ^2 - 6.591027935797899 D[16] ^2
   - 6.750924788818724 D[17] ^2 - 7.289130111116616 D[18] ^2
   - 7.968019792056213 D[19] ^2 - 6.291072731948008 D[20] ^2
   - 6.584001288734226 D[23] ^2 - 7.434600275966918 D[24] ^2
   - 7.830332923302103 D[27] ^2 - 7.492569670541768 D[29] ^2
   - 7.244643257957224 D[32] ^2 - 6.220274358673295 D[33] ^2
   - 6.019985525631416 D[34] ^2 - 7.525476401111557 D[36] ^2
   - 6.982647614161734 D[38] ^2 - 6.351386316296081 D[40] ^2
   - 1.36618147156987 S[2] ^2 - 1.502056904985346 S[5] ^2
   - 1.430139003116773 S[7] ^2 - 0.6470193465993517 S[8] ^2
   - 1.979375463574567 S[9] ^2 - 0.3724365315673179 S[10] ^2
   - 0.7671093225538428 S[12] ^2 - 1.883457688461331 S[13] ^2
   - 0.7408539771920841 S[14] ^2 - 1.592990286009103 S[17] ^2
   - 0.8697452002038568 S[19] ^2 - 0.9190073488641954 S[21] ^2
   - 1.646080801428137 S[22] ^2 - 0.6096005032525025 S[26] ^2
   - 0.8273067428314398 S[28] ^2 - 1.493737700993125 S[29] ^2
   - 0.0265239290266781 S[30] ^2 - 0.6771766620645263 S[35] ^2
   - 1.187768337860619 S[37] ^2 - 0.4741111716155262 S[39] ^2 ] / 2 
Subject To
 R0: Q[2] + Q[3] + Q[4] + Q[5] + Q[8] + Q[9] + Q[10] + Q[11] + Q[12]
   + Q[13] + Q[14] + Q[15] + Q[17] + Q[19] + Q[20] + Q[21] + Q[23] + Q[24]
   + Q[25] + Q[26] + Q[28] + Q[30] + Q[32] + Q[33] + Q[34] + Q[35] + Q[36]
   + Q[37] + Q[38] + Q[40] <= 2625
 R1: - 120 x[2] + Q[2] <= 0
 R2: - 175 x[3] + Q[3] <= 0
 R3: - 193 x[4] + Q[4] <= 0
 R4: - 135 x[5] + Q[5] <= 0
 R5: - 199 x[8] + Q[8] <= 0
 R6: - 169 x[9] + Q[9] <= 0
 R7: - 182 x[10] + Q[10] <= 0
 R8: - 161 x[11] + Q[11] <= 0
 R9: - 158 x[12] + Q[12] <= 0
 R10: - 191 x[13] + Q[13] <= 0
 R11: - 183 x[14] + Q[14] <= 0
 R12: - 161 x[15] + Q[15] <= 0
 R13: - 167 x[17] + Q[17] <= 0
 R14: - 114 x[19] + Q[19] <= 0
 R15: - 186 x[20] + Q[20] <= 0
 R16: - 196 x[21] + Q[21] <= 0
 R17: - 149 x[23] + Q[23] <= 0
 R18: - 170 x[24] + Q[24] <= 0
 R19: - 128 x[25] + Q[25] <= 0
 R20: - 185 x[26] + Q[26] <= 0
 R21: - 155 x[28] + Q[28] <= 0
 R22: - 156 x[30] + Q[30] <= 0
 R23: - 149 x[32] + Q[32] <= 0
 R24: - 194 x[33] + Q[33] <= 0
 R25: - 120 x[34] + Q[34] <= 0
 R26: - 101 x[35] + Q[35] <= 0
 R27: - 167 x[36] + Q[36] <= 0
 R28: - 166 x[37] + Q[37] <= 0
 R29: - 173 x[38] + Q[38] <= 0
 R30: - 115 x[40] + Q[40] <= 0
 node[25]: - Q[25] + f[25,3] - f[7,25] + f[25,12] - f[38,25] + f[25,16]
   = 0
 node[3]: - Q[3] + f[3,2] - f[4,3] - f[5,3] - f[8,3] - f[25,3] - f[38,3]
   - f[11,3] = 0
 node[4]: - Q[4] + f[4,3] - f[27,4] - f[32,4] - f[35,4] = 0
 node[35]: - Q[35] + f[35,12] + f[35,4] - S[35] = 0
 node[37]: - Q[37] + f[37,16] - f[28,37] - f[23,37] - f[32,37] - f[21,37]
   - S[37] = 0
 node[8]: - Q[8] + f[8,3] - f[17,8] + f[8,18] - S[8] = 0
 node[10]: - Q[10] + f[10,1] - S[10] = 0
 node[12]: - Q[12] + f[12,7] - f[13,12] - f[35,12] - f[25,12] + f[12,24]
   - f[2,12] - S[12] = 0
 node[13]: - Q[13] + f[13,12] - f[19,13] - f[22,13] - S[13] = 0
 node[14]: - Q[14] + f[14,2] - f[15,14] - f[36,14] - S[14] = 0
 node[21]: - Q[21] + f[21,6] - f[22,21] - f[40,21] + f[21,37] - S[21] = 0
 node[26]: - Q[26] + f[26,22] - S[26] = 0
 node[28]: - Q[28] + f[28,15] - f[30,28] + f[28,37] - S[28] = 0
 node[30]: - Q[30] + f[30,28] - f[33,30] - f[34,30] - f[15,30] - S[30] = 0
 node[32]: - Q[32] + f[32,1] + f[32,4] + f[32,37] + D[32] = 0
 node[33]: - Q[33] + f[33,30] - f[34,33] + D[33] = 0
 node[34]: - Q[34] + f[34,30] + f[34,33] + D[34] = 0
 node[36]: - Q[36] + f[36,14] + f[36,38] + D[36] = 0
 node[38]: - Q[38] + f[38,9] + f[38,3] + f[38,25] - f[36,38] + D[38] = 0
 node[40]: - Q[40] + f[40,21] + D[40] = 0
 node[11]: - Q[11] + f[11,5] - f[16,11] + f[11,3] - f[29,11] + D[11] = 0
 node[15]: - Q[15] + f[15,14] - f[28,15] - f[29,15] + f[15,30] + D[15] = 0
 node[20]: - Q[20] + f[20,9] + D[20] = 0
 node[23]: - Q[23] + f[23,5] - f[39,23] + f[23,37] - f[5,23] + D[23] = 0
 node[24]: - Q[24] + f[24,18] - f[12,24] + D[24] = 0
 node[2]: - Q[2] + f[2,1] - f[3,2] - f[7,2] - f[9,2] - f[14,2] + f[2,12]
   + D[2] - S[2] = 0
 node[5]: - Q[5] + f[5,3] - f[6,5] - f[11,5] - f[23,5] + f[5,23] + D[5]
   - S[5] = 0
 node[9]: - Q[9] + f[9,2] - f[20,9] - f[38,9] - f[39,9] - f[22,9] + D[9]
   - S[9] = 0
 node[17]: - Q[17] + f[17,8] - f[7,17] + D[17] - S[17] = 0
 node[19]: - Q[19] + f[19,13] + D[19] - S[19] = 0
 node[1]: - f[2,1] - f[10,1] - f[32,1] = 0
 node[6]: f[6,5] - f[18,6] - f[21,6] - f[27,6] = 0
 node[31]: f[31,27] = 0
 node[7]: f[7,2] - f[12,7] + f[7,17] + f[7,25] - S[7] = 0
 node[22]: f[22,21] - f[26,22] + f[22,9] + f[22,13] - S[22] = 0
 node[39]: f[39,9] + f[39,23] - f[29,39] - S[39] = 0
 node[16]: f[16,11] - f[37,16] - f[25,16] + D[16] = 0
 node[18]: f[18,6] - f[24,18] - f[8,18] + D[18] = 0
 node[27]: f[27,4] - f[31,27] + f[27,6] + D[27] = 0
 node[29]: f[29,15] + f[29,39] + f[29,11] + D[29] - S[29] = 0
 Cost_Flow[2,1]: - pi[1] + pi[2] + 1.147110834653381 f[2,1] - mu_f[2,1]
   = -1.603196885304082
 Cost_Flow[3,2]: - pi[2] + pi[3] + 0.1894789392107878 f[3,2] - mu_f[3,2]
   = -1.591129998398542
 Cost_Flow[4,3]: - pi[3] + pi[4] + 0.5073251492023627 f[4,3] - mu_f[4,3]
   = -1.437210680212749
 Cost_Flow[5,3]: - pi[3] + pi[5] + 1.630888217959189 f[5,3] - mu_f[5,3]
   = -1.576848586114168
 Cost_Flow[6,5]: - pi[5] + pi[6] + 0.8625762963328663 f[6,5] - mu_f[6,5]
   = -2.362911118986152
 Cost_Flow[7,2]: - pi[2] + pi[7] + 1.620612427994486 f[7,2] - mu_f[7,2]
   = -2.37204139807092
 Cost_Flow[8,3]: - pi[3] + pi[8] + 1.036962656519935 f[8,3] - mu_f[8,3]
   = -2.630026219016707
 Cost_Flow[9,2]: - pi[2] + pi[9] + 0.9971499316873358 f[9,2] - mu_f[9,2]
   = -1.111291557635917
 Cost_Flow[10,1]: - pi[1] + pi[10] + 0.9091292947380647 f[10,1]
   - mu_f[10,1] = -2.020074701487551
 Cost_Flow[11,5]: - pi[5] + pi[11] + 0.7478257665078656 f[11,5]
   - mu_f[11,5] = -1.851788488866254
 Cost_Flow[12,7]: - pi[7] + pi[12] + 1.079242287376725 f[12,7] - mu_f[12,7]
   = -0.6523496076035747
 Cost_Flow[13,12]: - pi[12] + pi[13] + 0.57368376912424 f[13,12]
   - mu_f[13,12] = -1.506365929685346
 Cost_Flow[14,2]: - pi[2] + pi[14] + 1.680772896600876 f[14,2] - mu_f[14,2]
   = -1.287185876615631
 Cost_Flow[15,14]: - pi[14] + pi[15] + 0.4798794439762579 f[15,14]
   - mu_f[15,14] = -2.921324497658728
 Cost_Flow[16,11]: - pi[11] + pi[16] + 1.457942746875315 f[16,11]
   - mu_f[16,11] = -1.771287134239787
 Cost_Flow[17,8]: - pi[8] + pi[17] + 0.7467174081043801 f[17,8]
   - mu_f[17,8] = -2.441979734682798
 Cost_Flow[18,6]: - pi[6] + pi[18] + 1.088748396696884 f[18,6] - mu_f[18,6]
   = -1.376576034810869
 Cost_Flow[19,13]: - pi[13] + pi[19] + 0.2960594767580571 f[19,13]
   - mu_f[19,13] = -2.51002519014831
 Cost_Flow[20,9]: - pi[9] + pi[20] + 1.854280329003829 f[20,9] - mu_f[20,9]
   = -2.725174463928074
 Cost_Flow[21,6]: - pi[6] + pi[21] + 0.666332652695879 f[21,6] - mu_f[21,6]
   = -0.4616757557903093
 Cost_Flow[22,21]: - pi[21] + pi[22] + 1.922280151258445 f[22,21]
   - mu_f[22,21] = -1.816241716095186
 Cost_Flow[23,5]: - pi[5] + pi[23] + 0.3293907919899834 f[23,5]
   - mu_f[23,5] = -1.896832949463954
 Cost_Flow[24,18]: - pi[18] + pi[24] + 0.6482114713386573 f[24,18]
   - mu_f[24,18] = -1.597101435858204
 Cost_Flow[25,3]: - pi[3] + pi[25] + 1.254585564145943 f[25,3] - mu_f[25,3]
   = -2.559877438784188
 Cost_Flow[26,22]: - pi[22] + pi[26] + 1.11616172361708 f[26,22]
   - mu_f[26,22] = -1.271746046334004
 Cost_Flow[27,4]: - pi[4] + pi[27] + 1.712899508841197 f[27,4] - mu_f[27,4]
   = -2.606944127516136
 Cost_Flow[28,15]: - pi[15] + pi[28] + 0.1361986769503951 f[28,15]
   - mu_f[28,15] = -2.41910481343111
 Cost_Flow[29,15]: - pi[15] + pi[29] + 0.8809698462076412 f[29,15]
   - mu_f[29,15] = -2.023630566397242
 Cost_Flow[30,28]: - pi[28] + pi[30] + 1.091172424715445 f[30,28]
   - mu_f[30,28] = -0.5947313493343912
 Cost_Flow[31,27]: - pi[27] + pi[31] + 1.058951438680535 f[31,27]
   - mu_f[31,27] = -0.9909522426718933
 Cost_Flow[32,1]: - pi[1] + pi[32] + 1.116905442263647 f[32,1] - mu_f[32,1]
   = -1.066988939518543
 Cost_Flow[33,30]: - pi[30] + pi[33] + 0.7942646187902609 f[33,30]
   - mu_f[33,30] = -2.852678606067255
 Cost_Flow[34,30]: - pi[30] + pi[34] + 1.974129362015651 f[34,30]
   - mu_f[34,30] = -2.63371548818757
 Cost_Flow[35,12]: - pi[12] + pi[35] + 0.3841125491623834 f[35,12]
   - mu_f[35,12] = -0.0252893952539299
 Cost_Flow[36,14]: - pi[14] + pi[36] + 0.6307006001983346 f[36,14]
   - mu_f[36,14] = -2.841611230885407
 Cost_Flow[37,16]: - pi[16] + pi[37] + 0.9023005696386091 f[37,16]
   - mu_f[37,16] = -1.874479178680586
 Cost_Flow[38,9]: - pi[9] + pi[38] + 1.921919613243951 f[38,9] - mu_f[38,9]
   = -2.789260255835622
 Cost_Flow[39,9]: - pi[9] + pi[39] + 0.4996060487338545 f[39,9]
   - mu_f[39,9] = -1.043732847279116
 Cost_Flow[40,21]: - pi[21] + pi[40] + 0.4569811487510786 f[40,21]
   - mu_f[40,21] = -0.5838716355874716
 Cost_Flow[38,3]: - pi[3] + pi[38] + 0.5368623399914727 f[38,3]
   - mu_f[38,3] = -1.759521018634993
 Cost_Flow[39,23]: - pi[23] + pi[39] + 1.593655663525066 f[39,23]
   - mu_f[39,23] = -1.480765080726982
 Cost_Flow[27,6]: - pi[6] + pi[27] + 1.072544559180136 f[27,6] - mu_f[27,6]
   = -0.6312501770103851
 Cost_Flow[7,17]: pi[7] - pi[17] + 0.3914610044212781 f[7,17] - mu_f[7,17]
   = -0.3213796496106526
 Cost_Flow[28,37]: pi[28] - pi[37] + 0.2488344595115248 f[28,37]
   - mu_f[28,37] = -0.9566620788795894
 Cost_Flow[8,18]: pi[8] - pi[18] + 0.7857324869731548 f[8,18] - mu_f[8,18]
   = -0.5858985441429891
 Cost_Flow[15,30]: pi[15] - pi[30] + 1.396076002643243 f[15,30]
   - mu_f[15,30] = -2.995109220021705
 Cost_Flow[23,37]: pi[23] - pi[37] + 1.227445906977848 f[23,37]
   - mu_f[23,37] = -2.888119825429757
 Cost_Flow[22,9]: - pi[9] + pi[22] + 0.8562078140506335 f[22,9]
   - mu_f[22,9] = -0.7959075997096635
 Cost_Flow[7,25]: pi[7] - pi[25] + 1.273344278767329 f[7,25] - mu_f[7,25]
   = -0.0412167956116702
 Cost_Flow[25,12]: - pi[12] + pi[25] + 1.667059817885528 f[25,12]
   - mu_f[25,12] = -1.399002262691327
 Cost_Flow[12,24]: pi[12] - pi[24] + 0.8780408618869204 f[12,24]
   - mu_f[12,24] = -0.4994819428973398
 Cost_Flow[22,13]: - pi[13] + pi[22] + 1.128643873882254 f[22,13]
   - mu_f[22,13] = -0.0998663301552947
 Cost_Flow[11,3]: - pi[3] + pi[11] + 0.7865746461850482 f[11,3]
   - mu_f[11,3] = -1.855915088714919
 Cost_Flow[38,25]: - pi[25] + pi[38] + 0.5555132365775859 f[38,25]
   - mu_f[38,25] = -0.2615205937511379
 Cost_Flow[34,33]: - pi[33] + pi[34] + 1.429019289941444 f[34,33]
   - mu_f[34,33] = -0.3586710489300894
 Cost_Flow[32,4]: - pi[4] + pi[32] + 0.1062916847613766 f[32,4]
   - mu_f[32,4] = -0.7665119022711122
 Cost_Flow[2,12]: pi[2] - pi[12] + 1.161444099701359 f[2,12] - mu_f[2,12]
   = -0.6457296106833048
 Cost_Flow[25,16]: - pi[16] + pi[25] + 1.142294932543841 f[25,16]
   - mu_f[25,16] = -1.834752495296459
 Cost_Flow[35,4]: - pi[4] + pi[35] + 1.133107203872609 f[35,4] - mu_f[35,4]
   = -1.915614163472943
 Cost_Flow[32,37]: pi[32] - pi[37] + 1.506352708262821 f[32,37]
   - mu_f[32,37] = -2.861964161742205
 Cost_Flow[29,39]: pi[29] - pi[39] + 0.9339965222506308 f[29,39]
   - mu_f[29,39] = -1.212907208893493
 Cost_Flow[36,38]: pi[36] - pi[38] + 1.137002945307714 f[36,38]
   - mu_f[36,38] = -1.170580745860745
 Cost_Flow[21,37]: pi[21] - pi[37] + 0.9422589178204788 f[21,37]
   - mu_f[21,37] = -0.1606564319797981
 Cost_Flow[5,23]: pi[5] - pi[23] + 1.993257810973114 f[5,23] - mu_f[5,23]
   = -0.7512141295817895
 Cost_Flow[29,11]: - pi[11] + pi[29] + 1.810643176132563 f[29,11]
   - mu_f[29,11] = -1.279963147406615
 Cost_Demand[2]: pi[2] + 3.025378789925602 D[2] - mu_D[2] = 1424
 Cost_Demand[5]: pi[5] + 3.627064597473495 D[5] - mu_D[5] = 1385
 Cost_Demand[9]: pi[9] + 3.42518311478156 D[9] - mu_D[9] = 1424
 Cost_Demand[11]: pi[11] + 3.939293082036992 D[11] - mu_D[11] = 1353
 Cost_Demand[15]: pi[15] + 3.388530824254932 D[15] - mu_D[15] = 1425
 Cost_Demand[16]: pi[16] + 3.29551396789895 D[16] - mu_D[16] = 1497
 Cost_Demand[17]: pi[17] + 3.375462394409362 D[17] - mu_D[17] = 1447
 Cost_Demand[18]: pi[18] + 3.644565055558308 D[18] - mu_D[18] = 1331
 Cost_Demand[19]: pi[19] + 3.984009896028106 D[19] - mu_D[19] = 1438
 Cost_Demand[20]: pi[20] + 3.145536365974004 D[20] - mu_D[20] = 1303
 Cost_Demand[23]: pi[23] + 3.292000644367113 D[23] - mu_D[23] = 1423
 Cost_Demand[24]: pi[24] + 3.717300137983459 D[24] - mu_D[24] = 1422
 Cost_Demand[27]: pi[27] + 3.915166461651051 D[27] - mu_D[27] = 1350
 Cost_Demand[29]: pi[29] + 3.746284835270884 D[29] - mu_D[29] = 1383
 Cost_Demand[32]: pi[32] + 3.622321628978612 D[32] - mu_D[32] = 1380
 Cost_Demand[33]: pi[33] + 3.110137179336648 D[33] - mu_D[33] = 1379
 Cost_Demand[34]: pi[34] + 3.009992762815708 D[34] - mu_D[34] = 1331
 Cost_Demand[36]: pi[36] + 3.762738200555778 D[36] - mu_D[36] = 1364
 Cost_Demand[38]: pi[38] + 3.491323807080867 D[38] - mu_D[38] = 1356
 Cost_Demand[40]: pi[40] + 3.17569315814804 D[40] - mu_D[40] = 1374
 Cost_Supply[2]: - pi[2] + 0.683090735784935 S[2] - mu_S[2]
   = -1.516939490070479
 Cost_Supply[5]: - pi[5] + 0.751028452492673 S[5] - mu_S[5]
   = -1.887674808095442
 Cost_Supply[7]: - pi[7] + 0.7150695015583867 S[7] - mu_S[7]
   = -1.488610321994358
 Cost_Supply[8]: - pi[8] + 0.3235096732996758 S[8] - mu_S[8]
   = -1.535676214858714
 Cost_Supply[9]: - pi[9] + 0.9896877317872833 S[9] - mu_S[9]
   = -1.061838147150251
 Cost_Supply[10]: - pi[10] + 0.186218265783659 S[10] - mu_S[10]
   = -1.364646028192988
 Cost_Supply[12]: - pi[12] + 0.3835546612769214 S[12] - mu_S[12]
   = -1.622936562002931
 Cost_Supply[13]: - pi[13] + 0.9417288442306654 S[13] - mu_S[13]
   = -1.464448432642501
 Cost_Supply[14]: - pi[14] + 0.3704269885960421 S[14] - mu_S[14]
   = -1.557971620058006
 Cost_Supply[17]: - pi[17] + 0.7964951430045517 S[17] - mu_S[17]
   = -1.797446817574148
 Cost_Supply[19]: - pi[19] + 0.4348726001019284 S[19] - mu_S[19]
   = -1.82202739175216
 Cost_Supply[21]: - pi[21] + 0.4595036744320977 S[21] - mu_S[21]
   = -1.121730714065535
 Cost_Supply[22]: - pi[22] + 0.8230404007140684 S[22] - mu_S[22]
   = -1.304048896812072
 Cost_Supply[26]: - pi[26] + 0.3048002516262512 S[26] - mu_S[26]
   = -1.133683997809814
 Cost_Supply[28]: - pi[28] + 0.4136533714157199 S[28] - mu_S[28]
   = -1.704202041604962
 Cost_Supply[29]: - pi[29] + 0.7468688504965625 S[29] - mu_S[29]
   = -1.592293164981553
 Cost_Supply[30]: - pi[30] + 0.0132619645133391 S[30] - mu_S[30]
   = -1.428901396439984
 Cost_Supply[35]: - pi[35] + 0.3385883310322632 S[35] - mu_S[35]
   = -1.862339565294851
 Cost_Supply[37]: - pi[37] + 0.5938841689303096 S[37] - mu_S[37]
   = -1.975289125362092
 Cost_Supply[39]: - pi[39] + 0.2370555858077631 S[39] - mu_S[39]
   = -1.484142016708258
Bounds
Binaries
 x[2] x[3] x[4] x[5] x[8] x[9] x[10] x[11] x[12] x[13] x[14] x[15] x[17]
 x[19] x[20] x[21] x[23] x[24] x[25] x[26] x[28] x[30] x[32] x[33] x[34]
 x[35] x[36] x[37] x[38] x[40]
SOS
 s0:  S1 :: f[2,1]:1 mu_f[2,1]:2
 s1:  S1 :: f[3,2]:1 mu_f[3,2]:2
 s2:  S1 :: f[4,3]:1 mu_f[4,3]:2
 s3:  S1 :: f[5,3]:1 mu_f[5,3]:2
 s4:  S1 :: f[6,5]:1 mu_f[6,5]:2
 s5:  S1 :: f[7,2]:1 mu_f[7,2]:2
 s6:  S1 :: f[8,3]:1 mu_f[8,3]:2
 s7:  S1 :: f[9,2]:1 mu_f[9,2]:2
 s8:  S1 :: f[10,1]:1 mu_f[10,1]:2
 s9:  S1 :: f[11,5]:1 mu_f[11,5]:2
 s10:  S1 :: f[12,7]:1 mu_f[12,7]:2
 s11:  S1 :: f[13,12]:1 mu_f[13,12]:2
 s12:  S1 :: f[14,2]:1 mu_f[14,2]:2
 s13:  S1 :: f[15,14]:1 mu_f[15,14]:2
 s14:  S1 :: f[16,11]:1 mu_f[16,11]:2
 s15:  S1 :: f[17,8]:1 mu_f[17,8]:2
 s16:  S1 :: f[18,6]:1 mu_f[18,6]:2
 s17:  S1 :: f[19,13]:1 mu_f[19,13]:2
 s18:  S1 :: f[20,9]:1 mu_f[20,9]:2
 s19:  S1 :: f[21,6]:1 mu_f[21,6]:2
 s20:  S1 :: f[22,21]:1 mu_f[22,21]:2
 s21:  S1 :: f[23,5]:1 mu_f[23,5]:2
 s22:  S1 :: f[24,18]:1 mu_f[24,18]:2
 s23:  S1 :: f[25,3]:1 mu_f[25,3]:2
 s24:  S1 :: f[26,22]:1 mu_f[26,22]:2
 s25:  S1 :: f[27,4]:1 mu_f[27,4]:2
 s26:  S1 :: f[28,15]:1 mu_f[28,15]:2
 s27:  S1 :: f[29,15]:1 mu_f[29,15]:2
 s28:  S1 :: f[30,28]:1 mu_f[30,28]:2
 s29:  S1 :: f[31,27]:1 mu_f[31,27]:2
 s30:  S1 :: f[32,1]:1 mu_f[32,1]:2
 s31:  S1 :: f[33,30]:1 mu_f[33,30]:2
 s32:  S1 :: f[34,30]:1 mu_f[34,30]:2
 s33:  S1 :: f[35,12]:1 mu_f[35,12]:2
 s34:  S1 :: f[36,14]:1 mu_f[36,14]:2
 s35:  S1 :: f[37,16]:1 mu_f[37,16]:2
 s36:  S1 :: f[38,9]:1 mu_f[38,9]:2
 s37:  S1 :: f[39,9]:1 mu_f[39,9]:2
 s38:  S1 :: f[40,21]:1 mu_f[40,21]:2
 s39:  S1 :: f[38,3]:1 mu_f[38,3]:2
 s40:  S1 :: f[39,23]:1 mu_f[39,23]:2
 s41:  S1 :: f[27,6]:1 mu_f[27,6]:2
 s42:  S1 :: f[7,17]:1 mu_f[7,17]:2
 s43:  S1 :: f[28,37]:1 mu_f[28,37]:2
 s44:  S1 :: f[8,18]:1 mu_f[8,18]:2
 s45:  S1 :: f[15,30]:1 mu_f[15,30]:2
 s46:  S1 :: f[23,37]:1 mu_f[23,37]:2
 s47:  S1 :: f[22,9]:1 mu_f[22,9]:2
 s48:  S1 :: f[7,25]:1 mu_f[7,25]:2
 s49:  S1 :: f[25,12]:1 mu_f[25,12]:2
 s50:  S1 :: f[12,24]:1 mu_f[12,24]:2
 s51:  S1 :: f[22,13]:1 mu_f[22,13]:2
 s52:  S1 :: f[11,3]:1 mu_f[11,3]:2
 s53:  S1 :: f[38,25]:1 mu_f[38,25]:2
 s54:  S1 :: f[34,33]:1 mu_f[34,33]:2
 s55:  S1 :: f[32,4]:1 mu_f[32,4]:2
 s56:  S1 :: f[2,12]:1 mu_f[2,12]:2
 s57:  S1 :: f[25,16]:1 mu_f[25,16]:2
 s58:  S1 :: f[35,4]:1 mu_f[35,4]:2
 s59:  S1 :: f[32,37]:1 mu_f[32,37]:2
 s60:  S1 :: f[29,39]:1 mu_f[29,39]:2
 s61:  S1 :: f[36,38]:1 mu_f[36,38]:2
 s62:  S1 :: f[21,37]:1 mu_f[21,37]:2
 s63:  S1 :: f[5,23]:1 mu_f[5,23]:2
 s64:  S1 :: f[29,11]:1 mu_f[29,11]:2
 s65:  S1 :: D[2]:1 mu_D[2]:2
 s66:  S1 :: D[5]:1 mu_D[5]:2
 s67:  S1 :: D[9]:1 mu_D[9]:2
 s68:  S1 :: D[11]:1 mu_D[11]:2
 s69:  S1 :: D[15]:1 mu_D[15]:2
 s70:  S1 :: D[16]:1 mu_D[16]:2
 s71:  S1 :: D[17]:1 mu_D[17]:2
 s72:  S1 :: D[18]:1 mu_D[18]:2
 s73:  S1 :: D[19]:1 mu_D[19]:2
 s74:  S1 :: D[20]:1 mu_D[20]:2
 s75:  S1 :: D[23]:1 mu_D[23]:2
 s76:  S1 :: D[24]:1 mu_D[24]:2
 s77:  S1 :: D[27]:1 mu_D[27]:2
 s78:  S1 :: D[29]:1 mu_D[29]:2
 s79:  S1 :: D[32]:1 mu_D[32]:2
 s80:  S1 :: D[33]:1 mu_D[33]:2
 s81:  S1 :: D[34]:1 mu_D[34]:2
 s82:  S1 :: D[36]:1 mu_D[36]:2
 s83:  S1 :: D[38]:1 mu_D[38]:2
 s84:  S1 :: D[40]:1 mu_D[40]:2
 s85:  S1 :: S[2]:1 mu_S[2]:2
 s86:  S1 :: S[5]:1 mu_S[5]:2
 s87:  S1 :: S[7]:1 mu_S[7]:2
 s88:  S1 :: S[8]:1 mu_S[8]:2
 s89:  S1 :: S[9]:1 mu_S[9]:2
 s90:  S1 :: S[10]:1 mu_S[10]:2
 s91:  S1 :: S[12]:1 mu_S[12]:2
 s92:  S1 :: S[13]:1 mu_S[13]:2
 s93:  S1 :: S[14]:1 mu_S[14]:2
 s94:  S1 :: S[17]:1 mu_S[17]:2
 s95:  S1 :: S[19]:1 mu_S[19]:2
 s96:  S1 :: S[21]:1 mu_S[21]:2
 s97:  S1 :: S[22]:1 mu_S[22]:2
 s98:  S1 :: S[26]:1 mu_S[26]:2
 s99:  S1 :: S[28]:1 mu_S[28]:2
 s100:  S1 :: S[29]:1 mu_S[29]:2
 s101:  S1 :: S[30]:1 mu_S[30]:2
 s102:  S1 :: S[35]:1 mu_S[35]:2
 s103:  S1 :: S[37]:1 mu_S[37]:2
 s104:  S1 :: S[39]:1 mu_S[39]:2
End
