Medium-instances_NetworkFacilityLocation/2023-03-27_20hr-25min-09sec/Nodes40_Arcs65_LocNodes30/Formulation-2Instance-4.log

Gurobi 9.5.2 (win64) logging started Mon Mar 27 20:28:39 2023

Set parameter LogFile to value "2023-03-27_20hr-25min-09sec/Nodes40_Arcs65_LocNodes30/Formulation-2Instance-4.log"
Set parameter TimeLimit to value 600
Set parameter IntFeasTol to value 1e-09
Set parameter DualReductions to value 0
Set parameter NonConvex to value 2
Gurobi Optimizer version 9.5.2 build v9.5.2rc0 (win64)
Thread count: 4 physical cores, 8 logical processors, using up to 8 threads
Optimize a model with 176 rows, 310 columns and 670 nonzeros
Model fingerprint: 0x1340c3fd
Model has 105 quadratic objective terms
Model has 105 SOS constraints
Variable types: 280 continuous, 30 integer (30 binary)
Coefficient statistics:
  Matrix range     [1e-02, 2e+02]
  Objective range  [3e-02, 1e+03]
  QObjective range [3e-02, 8e+00]
  Bounds range     [1e+00, 1e+00]
  RHS range        [3e-02, 3e+03]
Presolve removed 20 rows and 24 columns
Presolve time: 0.00s
Presolved: 156 rows, 286 columns, 624 nonzeros
Presolved model has 97 SOS constraint(s)
Presolved model has 97 quadratic objective terms
Variable types: 256 continuous, 30 integer (30 binary)

Root relaxation: objective 1.139999e+06, 351 iterations, 0.01 seconds (0.00 work units)

    Nodes    |    Current Node    |     Objective Bounds      |     Work
 Expl Unexpl |  Obj  Depth IntInf | Incumbent    BestBd   Gap | It/Node Time

     0     0 1139998.74    0    7          - 1139998.74      -     -    0s
H    0     0                    1135649.2929 1139998.74  0.38%     -    0s
     0     0 1139668.32    0    7 1135649.29 1139668.32  0.35%     -    0s
H    0     0                    1138562.1036 1139668.32  0.10%     -    0s
H    0     0                    1139441.5627 1139668.32  0.02%     -    0s

Cutting planes:
  MIR: 1
  Flow cover: 1

Explored 1 nodes (358 simplex iterations) in 0.11 seconds (0.02 work units)
Thread count was 8 (of 8 available processors)

Solution count 3: 1.13944e+06 1.13856e+06 1.13565e+06 

Optimal solution found (tolerance 1.00e-04)
Best objective 1.139441562676e+06, best bound 1.139441562676e+06, gap 0.0000%

User-callback calls 311, time in user-callback 0.00 sec
